(declare-fun bvlambda_6_ () (_ BitVec 5))
(declare-fun bvlambda_10_ () (_ BitVec 2))
(declare-fun bvlambda_11_ ()Bool         )
(declare-fun a65 () (Array (_ BitVec 1) (_ BitVec 14)))
(assert
(let (($e84 (concat bvlambda_10_ bvlambda_6_)))
(let (($e85 (concat $e84 false       )))
(let (($e86 (concat $e85 bvlambda_10_)))
(let (($e87 (concat $e86 false       )))
(let (($e88 (concat $e87 bvlambda_10_)))
(let (($e89 (concat $e88 false       )))
(let (($e99 (concat bvlambda_6_ false       )))
(let (($e100 (concat $e99 bvlambda_10_)))
(let (($e101 (concat $e100 false       )))
(let (($e109 (concat        bvlambda_6_ $e101)))
(let (($e112 (store a65 true        $e109)))
(let (($e113 (store $e112 bvlambda_11_ $e89)))
(let (($e114 (select $e113 true       )))
                  (bvult $e114 $e109)
                                                                                                                                                                                                                                                                                                                                                                                                                                                                                                                                                                                                                                                                                                                                                                                                                                                                                                                                                                                                                                                                                                                                                                                                                                                                                                                                                                                                                                                                              )))  )       )))         ))))))                                          )
